tsp_instances/TSP20/instance84.tsp
NODE_COORD_SECTION
0 14 157
1 138 124
2 25 85
3 36 78
4 110 104
5 157 33
6 131 42
7 83 82
8 51 5
9 150 50
10 110 48
11 121 10
12 124 59
13 10 102
14 56 126
15 170 65
16 20 194
17 167 183
18 161 175
19 129 162
