tsp_instances/TSP20/instance84.opt.tour
TOUR_SECTION
1
14
3
4
9
12
6
16
10
7
13
11
8
5
2
19
18
20
15
17
-1